NAME : portcgen-28-25
COMMENT : portcgen N=28, seed=25
TYPE : TSP
DIMENSION : 28
EDGE_WEIGHT_TYPE : EUC_2D
NODE_COORD_SECTION
1 -162937 349526
2 -256367 -300805
3 -22630 -265804
4 -187311 8933
5 64551 -7228
6 -15171 100626
7 -127587 -182531
8 101096 -86426
9 236905 177154
10 53771 -85340
11 604801 35175
12 -319979 -318156
13 73355 99345
14 18444 -102396
15 -202315 -153593
16 113389 205452
17 41042 -221908
18 2235 -113110
19 -70915 -53317
20 50904 -19357
21 -41968 -212685
22 -291037 72729
23 -33942 -107923
24 -160071 293348
25 278947 -155428
26 -127465 -46523
27 23533 -331396
28 -174017 332715
